(define-fun-rec
  u3
  ((x Int) (y Int)) Int (ite (<= x 0) y (+ (u3 (- x 1) y) x)))
(define-fun
  v3
  ((x Int) (y Int)) Int (u3 y x))
(define-fun
  j2
  ((x Int)) Int x)
(define-fun
  h4
  ((x Int)) Int (div (* (+ 1 x) (+ 2 x)) 2))
(define-fun
  h3
  ((x Int)) Int x)
(define-fun
  h2
  ((x Int)) Int x)
(define-fun
  h1
  ((x Int) (y Int)) Int y)
(define-fun
  g3
  ((x Int) (y Int)) Int y)
(define-fun
  g2
  ((x Int) (y Int)) Int (+ 1 y))
(define-funs-rec
  ((v2
    ((x Int) (y Int) (z Int)) Int)
   (u2
    ((x Int) (y Int) (z Int)) Int))
  ((ite (<= x 0) z (g2 (u2 (- x 1) y z) (v2 (- x 1) y z)))
   (ite (<= x 0) y (v3 (u2 (- x 1) y z) (v2 (- x 1) y z)))))
(define-fun
  w2
  ((x Int)) Int (u2 x 0 x))
(define-fun-rec
  u1
  ((x Int) (y Int)) Int (ite (<= x 0) y (w2 (u1 (- x 1) y))))
(define-fun
  v1
  ((x Int) (y Int)) Int (u1 1 y))
(define-fun
  g0
  ((x Int)) Int (+ 1 x))
(define-fun
  f4
  ((x Int)) Int (+ (* x x) (div (- (* x x) x) (+ 2 (+ 2 2)))))
(define-fun-rec
  u4
  ((x Int) (y Int)) Int (ite (<= x 0) y (f4 (u4 (- x 1) y))))
(define-fun
  v4
  ((x Int)) Int (u4 1 (h4 x)))
(define-fun
  f0
  ((x Int) (y Int)) Int (+ (v1 x y) x))
(define-fun-rec
  u0
  ((x Int) (y Int)) Int (ite (<= x 0) y (f0 (u0 (- x 1) y) x)))
(define-fun
  v0
  ((x Int)) Int (u0 (g0 x) 0))
(assert-not
  (forall ((c Int)) (or (not (>= c 0)) (= (v0 c) (v4 c)))))
